\ Model Cl_50_Ins_9.lp
\ LP format - for model browsing. Use MPS format to capture full model detail.
Maximize
 
Subject To
 obj1: y[0] = 0
 obj2: y[1] = 0
 obj1_Exp: - y[0] + 91 x[0] + 90 x[1] + 90 x[2] + 89 x[3] + 86 x[4]
   + 85 x[5] + 82 x[6] + 81 x[7] + 81 x[8] + 79 x[9] + 78 x[10] + 77 x[11]
   + 76 x[12] + 75 x[13] + 71 x[14] + 69 x[15] + 66 x[16] + 65 x[17]
   + 64 x[18] + 63 x[19] + 59 x[20] + 55 x[21] + 55 x[22] + 53 x[23]
   + 53 x[24] + 49 x[25] + 45 x[26] + 44 x[27] + 43 x[28] + 39 x[29]
   + 38 x[30] + 36 x[31] + 35 x[32] + 33 x[33] + 31 x[34] + 30 x[35]
   + 25 x[36] + 24 x[37] + 24 x[38] + 23 x[39] + 21 x[40] + 21 x[41]
   + 21 x[42] + 19 x[43] + 19 x[44] + 19 x[45] + 17 x[46] + 15 x[47]
   + 5 x[48] + 2 x[49] = 0
 obj2_Exp: - y[1] + 72 x[0] + 58 x[1] + 88 x[2] + 9 x[3] + 86 x[4]
   + 44 x[5] + 45 x[6] + 8 x[7] + 26 x[8] + 17 x[9] + 31 x[10] + 76 x[11]
   + 54 x[12] + 26 x[13] + 19 x[14] + 99 x[15] + 29 x[16] + 42 x[17]
   + 89 x[18] + 69 x[19] + 40 x[20] + 78 x[21] + 78 x[22] + 63 x[23]
   + 34 x[24] + 65 x[25] + 29 x[26] + 41 x[27] + 84 x[28] + 72 x[29]
   + 35 x[30] + 24 x[31] + 29 x[32] + 11 x[33] + 3 x[34] + 8 x[35]
   + 9 x[36] + 41 x[37] + 77 x[38] + 55 x[39] + 86 x[40] + 63 x[41]
   + 63 x[42] + 26 x[43] + 55 x[44] + 12 x[45] + 74 x[46] + 4 x[47]
   + 57 x[48] + 66 x[49] = 0
 Budget: 101 x[0] + 100 x[1] + 100 x[2] + 99 x[3] + 96 x[4] + 95 x[5]
   + 92 x[6] + 91 x[7] + 91 x[8] + 89 x[9] + 88 x[10] + 87 x[11] + 86 x[12]
   + 85 x[13] + 81 x[14] + 79 x[15] + 76 x[16] + 75 x[17] + 74 x[18]
   + 73 x[19] + 69 x[20] + 65 x[21] + 65 x[22] + 63 x[23] + 63 x[24]
   + 59 x[25] + 55 x[26] + 54 x[27] + 53 x[28] + 49 x[29] + 48 x[30]
   + 46 x[31] + 45 x[32] + 43 x[33] + 41 x[34] + 40 x[35] + 35 x[36]
   + 34 x[37] + 34 x[38] + 33 x[39] + 31 x[40] + 31 x[41] + 31 x[42]
   + 29 x[43] + 29 x[44] + 29 x[45] + 27 x[46] + 25 x[47] + 15 x[48]
   + 12 x[49] <= 1004
Bounds
Binaries
 x[0] x[1] x[2] x[3] x[4] x[5] x[6] x[7] x[8] x[9] x[10] x[11] x[12] x[13]
 x[14] x[15] x[16] x[17] x[18] x[19] x[20] x[21] x[22] x[23] x[24] x[25]
 x[26] x[27] x[28] x[29] x[30] x[31] x[32] x[33] x[34] x[35] x[36] x[37]
 x[38] x[39] x[40] x[41] x[42] x[43] x[44] x[45] x[46] x[47] x[48] x[49]
Generals
 y[0] y[1]
End
